12
4
109
98
2
54
86
79
37
106
69
107
63
33
8
30
100
43
38
32
28
49
24
103
108
45
36
9
57
50
93
95
101
10
23
15
41
92
84
97
17
102
3
48
58
80
42
25
83
72
29
67
51
46
105
110
74
55
20
88
89
96
56
18
65
64
75
66
62
47
27
60
11
68
77
35
34
99
52
94
40
44
13
78
82
59
90
5
76
26
73
1
91
7
85
14
0
31
71
61
